\Problem name: compact

Minimize
OBJROW: C
Subject To
ord(0,1):  - x(0,1) + x(0,2) >= 7
ord(0,2):  x(0,0) - x(0,2) >= 7
ord(1,1):  x(1,0) - x(1,1) >= 4
ord(1,2):  - x(1,0) + x(1,2) >= 3
ord(2,1):  - x(2,1) + x(2,2) >= 7
ord(2,2):  x(2,0) - x(2,2) >= 6
triangle2(0,1,0):  y(0,1,0) + y(1,0,0) = 1
triangle2(0,1,1):  y(0,1,1) + y(1,0,1) = 1
triangle2(0,1,2):  y(0,1,2) + y(1,0,2) = 1
triangle2(0,2,0):  y(0,2,0) + y(2,0,0) = 1
triangle2(0,2,1):  y(0,2,1) + y(2,0,1) = 1
triangle2(0,2,2):  y(0,2,2) + y(2,0,2) = 1
triangle2(1,2,0):  y(1,2,0) + y(2,1,0) = 1
triangle2(1,2,1):  y(1,2,1) + y(2,1,1) = 1
triangle2(1,2,2):  y(1,2,2) + y(2,1,2) = 1
MCLinV(0,1,0):  - x(0,0) + v(0,1,0)p - v(0,1,0)n + x(1,0) = -3
MCLinV(1,0,0):  x(0,0) + v(1,0,0)p - v(1,0,0)n - x(1,0) = -1
MCLin1(0,1,0):  u(0,1,0)p - u(0,1,0)n >= 0
MCLin2(0,1,0):  23 y(1,0,0) + u(0,1,0)p - u(0,1,0)n >= 0
MCLin3(0,1,0):  -36 y(1,0,0) - v(0,1,0)p + v(0,1,0)n + u(0,1,0)p - u(0,1,0)n >= -36
MCLin4(0,1,0):  -36 y(1,0,0) + u(0,1,0)p - u(0,1,0)n <= 0
MCLin5(0,1,0):  23 y(1,0,0) - v(0,1,0)p + v(0,1,0)n + u(0,1,0)p - u(0,1,0)n <= 23
MCLin6(1,0,0):  u(1,0,0)p - u(1,0,0)n >= 0
MCLin7(1,0,0):  40 y(0,1,0) + u(1,0,0)p - u(1,0,0)n >= 0
MCLin8(1,0,0):  -19 y(0,1,0) - v(1,0,0)p + v(1,0,0)n + u(1,0,0)p - u(1,0,0)n >= -19
MCLin9(1,0,0):  -19 y(0,1,0) + u(1,0,0)p - u(1,0,0)n <= 0
MCLin10(1,0,0):  40 y(0,1,0) - v(1,0,0)p + v(1,0,0)n + u(1,0,0)p - u(1,0,0)n <= 40
MCLinV(0,1,1):  - x(0,1) + v(0,1,1)p - v(0,1,1)n + x(1,1) = -4
MCLinV(1,0,1):  x(0,1) + v(1,0,1)p - v(1,0,1)n - x(1,1) = -7
MCLin1(0,1,1):  u(0,1,1)p - u(0,1,1)n >= 0
MCLin2(0,1,1):  34 y(1,0,1) + u(0,1,1)p - u(0,1,1)n >= 0
MCLin3(0,1,1):  -25 y(1,0,1) - v(0,1,1)p + v(0,1,1)n + u(0,1,1)p - u(0,1,1)n >= -25
MCLin4(0,1,1):  -25 y(1,0,1) + u(0,1,1)p - u(0,1,1)n <= 0
MCLin5(0,1,1):  34 y(1,0,1) - v(0,1,1)p + v(0,1,1)n + u(0,1,1)p - u(0,1,1)n <= 34
MCLin6(1,0,1):  u(1,0,1)p - u(1,0,1)n >= 0
MCLin7(1,0,1):  36 y(0,1,1) + u(1,0,1)p - u(1,0,1)n >= 0
MCLin8(1,0,1):  -23 y(0,1,1) - v(1,0,1)p + v(1,0,1)n + u(1,0,1)p - u(1,0,1)n >= -23
MCLin9(1,0,1):  -23 y(0,1,1) + u(1,0,1)p - u(1,0,1)n <= 0
MCLin10(1,0,1):  36 y(0,1,1) - v(1,0,1)p + v(1,0,1)n + u(1,0,1)p - u(1,0,1)n <= 36
MCLinV(0,1,2):  - x(0,2) + v(0,1,2)p - v(0,1,2)n + x(1,2) = -7
MCLinV(1,0,2):  x(0,2) + v(1,0,2)p - v(1,0,2)n - x(1,2) = -7
MCLin1(0,1,2):  u(0,1,2)p - u(0,1,2)n >= 0
MCLin2(0,1,2):  37 y(1,0,2) + u(0,1,2)p - u(0,1,2)n >= 0
MCLin3(0,1,2):  -22 y(1,0,2) - v(0,1,2)p + v(0,1,2)n + u(0,1,2)p - u(0,1,2)n >= -22
MCLin4(0,1,2):  -22 y(1,0,2) + u(0,1,2)p - u(0,1,2)n <= 0
MCLin5(0,1,2):  37 y(1,0,2) - v(0,1,2)p + v(0,1,2)n + u(0,1,2)p - u(0,1,2)n <= 37
MCLin6(1,0,2):  u(1,0,2)p - u(1,0,2)n >= 0
MCLin7(1,0,2):  36 y(0,1,2) + u(1,0,2)p - u(1,0,2)n >= 0
MCLin8(1,0,2):  -23 y(0,1,2) - v(1,0,2)p + v(1,0,2)n + u(1,0,2)p - u(1,0,2)n >= -23
MCLin9(1,0,2):  -23 y(0,1,2) + u(1,0,2)p - u(1,0,2)n <= 0
MCLin10(1,0,2):  36 y(0,1,2) - v(1,0,2)p + v(1,0,2)n + u(1,0,2)p - u(1,0,2)n <= 36
MCLinV(0,2,0):  - x(0,0) + v(0,2,0)p - v(0,2,0)n + x(2,0) = -2
MCLinV(2,0,0):  x(0,0) + v(2,0,0)p - v(2,0,0)n - x(2,0) = -1
MCLin1(0,2,0):  u(0,2,0)p - u(0,2,0)n >= 0
MCLin2(0,2,0):  30 y(2,0,0) + u(0,2,0)p - u(0,2,0)n >= 0
MCLin3(0,2,0):  -28 y(2,0,0) - v(0,2,0)p + v(0,2,0)n + u(0,2,0)p - u(0,2,0)n >= -28
MCLin4(0,2,0):  -28 y(2,0,0) + u(0,2,0)p - u(0,2,0)n <= 0
MCLin5(0,2,0):  30 y(2,0,0) - v(0,2,0)p + v(0,2,0)n + u(0,2,0)p - u(0,2,0)n <= 30
MCLin6(2,0,0):  u(2,0,0)p - u(2,0,0)n >= 0
MCLin7(2,0,0):  31 y(0,2,0) + u(2,0,0)p - u(2,0,0)n >= 0
MCLin8(2,0,0):  -27 y(0,2,0) - v(2,0,0)p + v(2,0,0)n + u(2,0,0)p - u(2,0,0)n >= -27
MCLin9(2,0,0):  -27 y(0,2,0) + u(2,0,0)p - u(2,0,0)n <= 0
MCLin10(2,0,0):  31 y(0,2,0) - v(2,0,0)p + v(2,0,0)n + u(2,0,0)p - u(2,0,0)n <= 31
MCLinV(0,2,1):  - x(0,1) + v(0,2,1)p - v(0,2,1)n + x(2,1) = -7
MCLinV(2,0,1):  x(0,1) + v(2,0,1)p - v(2,0,1)n - x(2,1) = -7
MCLin1(0,2,1):  u(0,2,1)p - u(0,2,1)n >= 0
MCLin2(0,2,1):  36 y(2,0,1) + u(0,2,1)p - u(0,2,1)n >= 0
MCLin3(0,2,1):  -22 y(2,0,1) - v(0,2,1)p + v(0,2,1)n + u(0,2,1)p - u(0,2,1)n >= -22
MCLin4(0,2,1):  -22 y(2,0,1) + u(0,2,1)p - u(0,2,1)n <= 0
MCLin5(0,2,1):  36 y(2,0,1) - v(0,2,1)p + v(0,2,1)n + u(0,2,1)p - u(0,2,1)n <= 36
MCLin6(2,0,1):  u(2,0,1)p - u(2,0,1)n >= 0
MCLin7(2,0,1):  36 y(0,2,1) + u(2,0,1)p - u(2,0,1)n >= 0
MCLin8(2,0,1):  -22 y(0,2,1) - v(2,0,1)p + v(2,0,1)n + u(2,0,1)p - u(2,0,1)n >= -22
MCLin9(2,0,1):  -22 y(0,2,1) + u(2,0,1)p - u(2,0,1)n <= 0
MCLin10(2,0,1):  36 y(0,2,1) - v(2,0,1)p + v(2,0,1)n + u(2,0,1)p - u(2,0,1)n <= 36
MCLinV(0,2,2):  - x(0,2) + v(0,2,2)p - v(0,2,2)n + x(2,2) = -6
MCLinV(2,0,2):  x(0,2) + v(2,0,2)p - v(2,0,2)n - x(2,2) = -7
MCLin1(0,2,2):  u(0,2,2)p - u(0,2,2)n >= 0
MCLin2(0,2,2):  35 y(2,0,2) + u(0,2,2)p - u(0,2,2)n >= 0
MCLin3(0,2,2):  -23 y(2,0,2) - v(0,2,2)p + v(0,2,2)n + u(0,2,2)p - u(0,2,2)n >= -23
MCLin4(0,2,2):  -23 y(2,0,2) + u(0,2,2)p - u(0,2,2)n <= 0
MCLin5(0,2,2):  35 y(2,0,2) - v(0,2,2)p + v(0,2,2)n + u(0,2,2)p - u(0,2,2)n <= 35
MCLin6(2,0,2):  u(2,0,2)p - u(2,0,2)n >= 0
MCLin7(2,0,2):  36 y(0,2,2) + u(2,0,2)p - u(2,0,2)n >= 0
MCLin8(2,0,2):  -22 y(0,2,2) - v(2,0,2)p + v(2,0,2)n + u(2,0,2)p - u(2,0,2)n >= -22
MCLin9(2,0,2):  -22 y(0,2,2) + u(2,0,2)p - u(2,0,2)n <= 0
MCLin10(2,0,2):  36 y(0,2,2) - v(2,0,2)p + v(2,0,2)n + u(2,0,2)p - u(2,0,2)n <= 36
MCLinV(1,2,0):  - x(1,0) + v(1,2,0)p - v(1,2,0)n + x(2,0) = -2
MCLinV(2,1,0):  x(1,0) + v(2,1,0)p - v(2,1,0)n - x(2,0) = -3
MCLin1(1,2,0):  u(1,2,0)p - u(1,2,0)n >= 0
MCLin2(1,2,0):  40 y(2,1,0) + u(1,2,0)p - u(1,2,0)n >= 0
MCLin3(1,2,0):  -19 y(2,1,0) - v(1,2,0)p + v(1,2,0)n + u(1,2,0)p - u(1,2,0)n >= -19
MCLin4(1,2,0):  -19 y(2,1,0) + u(1,2,0)p - u(1,2,0)n <= 0
MCLin5(1,2,0):  40 y(2,1,0) - v(1,2,0)p + v(1,2,0)n + u(1,2,0)p - u(1,2,0)n <= 40
MCLin6(2,1,0):  u(2,1,0)p - u(2,1,0)n >= 0
MCLin7(2,1,0):  24 y(1,2,0) + u(2,1,0)p - u(2,1,0)n >= 0
MCLin8(2,1,0):  -35 y(1,2,0) - v(2,1,0)p + v(2,1,0)n + u(2,1,0)p - u(2,1,0)n >= -35
MCLin9(2,1,0):  -35 y(1,2,0) + u(2,1,0)p - u(2,1,0)n <= 0
MCLin10(2,1,0):  24 y(1,2,0) - v(2,1,0)p + v(2,1,0)n + u(2,1,0)p - u(2,1,0)n <= 24
MCLinV(1,2,1):  - x(1,1) + v(1,2,1)p - v(1,2,1)n + x(2,1) = -7
MCLinV(2,1,1):  x(1,1) + v(2,1,1)p - v(2,1,1)n - x(2,1) = -4
MCLin1(1,2,1):  u(1,2,1)p - u(1,2,1)n >= 0
MCLin2(1,2,1):  36 y(2,1,1) + u(1,2,1)p - u(1,2,1)n >= 0
MCLin3(1,2,1):  -23 y(2,1,1) - v(1,2,1)p + v(1,2,1)n + u(1,2,1)p - u(1,2,1)n >= -23
MCLin4(1,2,1):  -23 y(2,1,1) + u(1,2,1)p - u(1,2,1)n <= 0
MCLin5(1,2,1):  36 y(2,1,1) - v(1,2,1)p + v(1,2,1)n + u(1,2,1)p - u(1,2,1)n <= 36
MCLin6(2,1,1):  u(2,1,1)p - u(2,1,1)n >= 0
MCLin7(2,1,1):  34 y(1,2,1) + u(2,1,1)p - u(2,1,1)n >= 0
MCLin8(2,1,1):  -25 y(1,2,1) - v(2,1,1)p + v(2,1,1)n + u(2,1,1)p - u(2,1,1)n >= -25
MCLin9(2,1,1):  -25 y(1,2,1) + u(2,1,1)p - u(2,1,1)n <= 0
MCLin10(2,1,1):  34 y(1,2,1) - v(2,1,1)p + v(2,1,1)n + u(2,1,1)p - u(2,1,1)n <= 34
MCLinV(1,2,2):  - x(1,2) + v(1,2,2)p - v(1,2,2)n + x(2,2) = -6
MCLinV(2,1,2):  x(1,2) + v(2,1,2)p - v(2,1,2)n - x(2,2) = -7
MCLin1(1,2,2):  u(1,2,2)p - u(1,2,2)n >= 0
MCLin2(1,2,2):  35 y(2,1,2) + u(1,2,2)p - u(1,2,2)n >= 0
MCLin3(1,2,2):  -24 y(2,1,2) - v(1,2,2)p + v(1,2,2)n + u(1,2,2)p - u(1,2,2)n >= -24
MCLin4(1,2,2):  -24 y(2,1,2) + u(1,2,2)p - u(1,2,2)n <= 0
MCLin5(1,2,2):  35 y(2,1,2) - v(1,2,2)p + v(1,2,2)n + u(1,2,2)p - u(1,2,2)n <= 35
MCLin6(2,1,2):  u(2,1,2)p - u(2,1,2)n >= 0
MCLin7(2,1,2):  37 y(1,2,2) + u(2,1,2)p - u(2,1,2)n >= 0
MCLin8(2,1,2):  -22 y(1,2,2) - v(2,1,2)p + v(2,1,2)n + u(2,1,2)p - u(2,1,2)n >= -22
MCLin9(2,1,2):  -22 y(1,2,2) + u(2,1,2)p - u(2,1,2)n <= 0
MCLin10(2,1,2):  37 y(1,2,2) - v(2,1,2)p + v(2,1,2)n + u(2,1,2)p - u(2,1,2)n <= 37
makespan(0):  C - x(0,0) >= 1
makespan(1):  C - x(1,2) >= 7
makespan(2):  C - x(2,0) >= 2
cut_clique_1(02,0):  0.03889 x(0,0) + 0.03475 x(2,0) >= 1
cut_clique_1(012,0):  0.04775 x(0,0) + 0.00103 x(1,0) + 0.02328 x(2,0) >= 1
cut_clique_1(02,1):  0.94771 x(0,1) + x(2,1) >= 1
cut_clique_1(012,1):  x(0,1) + 0.50047 x(1,1) + 0.91612 x(2,1) >= 1
cut_clique_1(01,1):  x(0,1) + x(1,1) >= 1
cut_clique_1(12,1):  x(1,1) + x(2,1) >= 1
cut_clique_1(01,2):  0.04037 x(0,2) + 0.09967 x(1,2) >= 1
cut_clique_1(02,2):  0.07485 x(0,2) + 0.03804 x(2,2) >= 1
cut_clique_1(012,2):  0.05253 x(0,2) + 0.00284 x(1,2) + 0.08649 x(2,2) >= 1
cut_clique_1(12,2):  0.07042 x(1,2) + 0.06452 x(2,2) >= 1
cut_clique_2(01,1):  0.93808 x(0,1) + 0.67588 x(1,1) >= 1
cut_clique_2(012,1):  0.80690 x(0,1) + 0.15424 x(1,1) + 0.76239 x(2,1) >= 1
cut_clique_2(02,1):  0.90887 x(0,1) + 0.84996 x(2,1) >= 1
cut_clique_2(12,1):  0.98482 x(1,1) + 0.94078 x(2,1) >= 1
cut_clique_2(01,2):  0.04520 x(0,2) + 0.06078 x(1,2) >= 1
cut_clique_2(012,2):  0.03712 x(0,2) + 0.06285 x(1,2) + 0.00414 x(2,2) >= 1
cut_clique_3(01,1):  0.93763 x(0,1) + 0.97163 x(1,1) >= 1
cut_clique_3(12,1):  0.95197 x(1,1) + 0.78861 x(2,1) >= 1
cut_clique_3(012,1):  0.01072 x(0,1) + x(1,1) + 0.78861 x(2,1) >= 1
cut_clique_3(02,1):  0.69354 x(0,1) + 0.21774 x(2,1) >= 1
cut_clique_3(01,2):  0.06369 x(0,2) + 0.04232 x(1,2) >= 1
cut_clique_4(12,1):  0.95810 x(1,1) + 0.61896 x(2,1) >= 1
cut_clique_4(012,1):  0.30286 x(0,1) + 0.82784 x(1,1) + 0.44116 x(2,1) >= 1
cut_clique_4(02,1):  0.22498 x(0,1) + 0.59332 x(2,1) >= 1
cut_clique_4(01,1):  0.78713 x(0,1) + x(1,1) >= 1
cut_clique_4(012,2):  0.00830 x(0,2) + 0.06940 x(1,2) + 0.02496 x(2,2) >= 1
cut_clique_5(01,1):  0.78349 x(0,1) + 0.86252 x(1,1) >= 1
cut_clique_5(012,1):  0.36269 x(0,1) + 0.90991 x(1,1) + 0.27799 x(2,1) >= 1
cut_clique_5(12,1):  0.89198 x(1,1) + 0.61757 x(2,1) >= 1
cut_clique_5(02,1):  0.30573 x(0,1) + 0.36318 x(2,1) >= 1
cut_clique_5(02,2):  0.04865 x(0,2) + 0.05849 x(2,2) >= 1
cut_clique_6(12,1):  x(1,1) + 0.61320 x(2,1) >= 1
cut_clique_6(01,1):  0.65926 x(0,1) + 0.92710 x(1,1) >= 1
cut_clique_6(012,1):  0.37084 x(0,1) + 0.95218 x(1,1) + 0.20020 x(2,1) >= 1
cut_clique_6(02,1):  0.35635 x(0,1) + 0.28138 x(2,1) >= 1
cut_clique_6(02,2):  0.06517 x(0,2) + 0.04181 x(2,2) >= 1
cut_clique_7(12,1):  0.38734 x(1,1) + 0.61025 x(2,1) >= 1
cut_clique_7(02,1):  0.19188 x(0,1) + 0.36923 x(2,1) >= 1
cut_clique_7(012,1):  0.36746 x(0,1) + 0.63402 x(1,1) + 0.19337 x(2,1) >= 1
cut_clique_7(01,1):  0.53604 x(0,1) + x(1,1) >= 1
cut_clique_7(01,2):  0.05087 x(0,2) + 0.05277 x(1,2) >= 1
cut_clique_7(12,2):  0.05379 x(1,2) + 0.04488 x(2,2) >= 1
cut_clique_8(12,1):  0.97747 x(1,1) + 0.55928 x(2,1) >= 1
cut_clique_8(012,1):  0.16144 x(0,1) + 0.95818 x(1,1) + 0.37445 x(2,1) >= 1
cut_clique_8(02,1):  0.32887 x(0,1) + 0.19462 x(2,1) >= 1
cut_clique_8(01,1):  0.45823 x(0,1) + 0.92565 x(1,1) >= 1
cut_clique_8(01,2):  0.05164 x(0,2) + 0.04720 x(1,2) >= 1
cut_clique_8(012,2):  0.02231 x(0,2) + 0.02470 x(1,2) + 0.05226 x(2,2) >= 1
cut_clique_8(12,2):  0.05290 x(1,2) + 0.04510 x(2,2) >= 1
cut_clique_9(01,1):  0.42602 x(0,1) + 0.22632 x(1,1) >= 1
cut_clique_9(02,1):  0.31261 x(0,1) + 0.19252 x(2,1) >= 1
cut_clique_9(012,1):  0.27189 x(0,1) + 0.30769 x(1,1) + 0.20069 x(2,1) >= 1
cut_clique_9(12,1):  x(1,1) + 0.49597 x(2,1) >= 1
cut_clique_9(02,2):  0.05432 x(0,2) + 0.04491 x(2,2) >= 1
cut_clique_9(012,2):  0.04686 x(0,2) + 0.01849 x(1,2) + 0.03423 x(2,2) >= 1
cut_clique_10(01,1):  0.34961 x(0,1) + 0.58793 x(1,1) >= 1
cut_clique_10(12,1):  0.44081 x(1,1) + 0.59697 x(2,1) >= 1
cut_clique_10(012,1):  0.09825 x(0,1) + 0.38013 x(1,1) + 0.31174 x(2,1) >= 1
cut_clique_10(02,1):  0.16394 x(0,1) + 0.40751 x(2,1) >= 1
cut_clique_10(02,2):  0.05263 x(0,2) + 0.04575 x(2,2) >= 1
cut_clique_11(12,1):  0.86256 x(1,1) + 0.44802 x(2,1) >= 1
cut_clique_11(012,1):  0.08102 x(0,1) + 0.45638 x(1,1) + 0.28809 x(2,1) >= 1
cut_clique_11(01,1):  0.29533 x(0,1) + 0.21803 x(1,1) >= 1
cut_clique_12(12,1):  0.49800 x(1,1) + 0.40270 x(2,1) >= 1
cut_clique_12(01,1):  0.28300 x(0,1) + 0.31316 x(1,1) >= 1
cut_clique_12(012,1):  0.05105 x(0,1) + 0.18198 x(1,1) + 0.35159 x(2,1) >= 1
cut_clique_13(02,1):  0.19298 x(0,1) + 0.17314 x(2,1) >= 1
cut_clique_13(12,1):  0.58528 x(1,1) + 0.35883 x(2,1) >= 1
cut_clique_13(012,1):  0.01389 x(0,1) + 0.52760 x(1,1) + 0.33186 x(2,1) >= 1
cut_clique_14(12,1):  0.57756 x(1,1) + 0.34140 x(2,1) >= 1
cut_clique_14(012,1):  0.00400 x(0,1) + 0.42952 x(1,1) + 0.31044 x(2,1) >= 1
cut_clique_14(02,1):  0.19052 x(0,1) + 0.16841 x(2,1) >= 1
cut_clique_14(01,1):  0.29238 x(0,1) + 0.17763 x(1,1) >= 1
cut_clique_15(01,1):  0.28671 x(0,1) + 0.15057 x(1,1) >= 1
cut_clique_15(12,1):  0.31911 x(1,1) + 0.34173 x(2,1) >= 1
cut_clique_15(02,1):  0.17907 x(0,1) + 0.17662 x(2,1) >= 1
cut_clique_15(012,1):  0.16852 x(0,1) + 0.09774 x(1,1) + 0.15896 x(2,1) >= 1
cut_clique_16(01,1):  0.28101 x(0,1) + 0.15592 x(1,1) >= 1
cut_clique_16(12,1):  0.35392 x(1,1) + 0.30326 x(2,1) >= 1
cut_clique_16(012,1):  0.14203 x(0,1) + 0.57542 x(1,1) + 0.07564 x(2,1) >= 1
cut_clique_17(12,1):  0.15490 x(1,1) + 0.34126 x(2,1) >= 1
cut_clique_17(01,1):  0.27115 x(0,1) + 0.17322 x(1,1) >= 1
cut_clique_17(012,1):  0.09111 x(0,1) + 0.24610 x(1,1) + 0.13011 x(2,1) >= 1
cut_clique_18(012,1):  0.11154 x(0,1) + 0.17753 x(1,1) + 0.14409 x(2,1) >= 1
cut_clique_18(01,1):  0.25327 x(0,1) + 0.17258 x(1,1) >= 1
cut_clique_18(02,1):  0.14537 x(0,1) + 0.20618 x(2,1) >= 1
cut_clique_19(012,1):  0.05558 x(0,1) + 0.12631 x(1,1) + 0.13599 x(2,1) >= 1
cut_clique_19(02,1):  0.17143 x(0,1) + 0.17645 x(2,1) >= 1
cut_clique_19(01,1):  0.26073 x(0,1) + 0.16405 x(1,1) >= 1
cut_clique_20(02,1):  0.20216 x(0,1) + 0.14739 x(2,1) >= 1
cut_clique_20(012,1):  0.14918 x(0,1) + 0.05469 x(1,1) + 0.08205 x(2,1) >= 1
cut_clique_21(012,1):  0.17196 x(0,1) + 0.02872 x(1,1) + 0.09124 x(2,1) >= 1
Bounds
 0 <= C <= 44
 14 <= x(0,0) <= 43
 0 <= y(0,1,0) <= 1
 0 <= y(1,0,0) <= 1
 0 <= v(0,1,0)p <= 36
 0 <= v(0,1,0)n <= 23
 0 <= v(1,0,0)p <= 19
 0 <= v(1,0,0)n <= 40
 0 <= u(0,1,0)p <= 440
 0 <= u(0,1,0)n <= 440
 0 <= u(1,0,0)p <= 440
 0 <= u(1,0,0)n <= 440
 0 <= y(0,2,0) <= 1
 0 <= y(2,0,0) <= 1
 0 <= v(0,2,0)p <= 28
 0 <= v(0,2,0)n <= 30
 0 <= v(2,0,0)p <= 27
 0 <= v(2,0,0)n <= 31
 0 <= u(0,2,0)p <= 440
 0 <= u(0,2,0)n <= 440
 0 <= u(2,0,0)p <= 440
 0 <= u(2,0,0)n <= 440
 4 <= x(1,0) <= 34
 0 <= y(1,2,0) <= 1
 0 <= y(2,1,0) <= 1
 0 <= v(1,2,0)p <= 19
 0 <= v(1,2,0)n <= 40
 0 <= v(2,1,0)p <= 35
 0 <= v(2,1,0)n <= 24
 0 <= u(1,2,0)p <= 440
 0 <= u(1,2,0)n <= 440
 0 <= u(2,1,0)p <= 440
 0 <= u(2,1,0)n <= 440
 13 <= x(2,0) <= 42
 0 <= x(0,1) <= 29
 0 <= y(0,1,1) <= 1
 0 <= y(1,0,1) <= 1
 0 <= v(0,1,1)p <= 25
 0 <= v(0,1,1)n <= 34
 0 <= v(1,0,1)p <= 23
 0 <= v(1,0,1)n <= 36
 0 <= u(0,1,1)p <= 440
 0 <= u(0,1,1)n <= 440
 0 <= u(1,0,1)p <= 440
 0 <= u(1,0,1)n <= 440
 0 <= y(0,2,1) <= 1
 0 <= y(2,0,1) <= 1
 0 <= v(0,2,1)p <= 22
 0 <= v(0,2,1)n <= 36
 0 <= v(2,0,1)p <= 22
 0 <= v(2,0,1)n <= 36
 0 <= u(0,2,1)p <= 440
 0 <= u(0,2,1)n <= 440
 0 <= u(2,0,1)p <= 440
 0 <= u(2,0,1)n <= 440
 0 <= x(1,1) <= 30
 0 <= y(1,2,1) <= 1
 0 <= y(2,1,1) <= 1
 0 <= v(1,2,1)p <= 23
 0 <= v(1,2,1)n <= 36
 0 <= v(2,1,1)p <= 25
 0 <= v(2,1,1)n <= 34
 0 <= u(1,2,1)p <= 440
 0 <= u(1,2,1)n <= 440
 0 <= u(2,1,1)p <= 440
 0 <= u(2,1,1)n <= 440
 0 <= x(2,1) <= 29
 7 <= x(0,2) <= 36
 0 <= y(0,1,2) <= 1
 0 <= y(1,0,2) <= 1
 0 <= v(0,1,2)p <= 22
 0 <= v(0,1,2)n <= 37
 0 <= v(1,0,2)p <= 23
 0 <= v(1,0,2)n <= 36
 0 <= u(0,1,2)p <= 440
 0 <= u(0,1,2)n <= 440
 0 <= u(1,0,2)p <= 440
 0 <= u(1,0,2)n <= 440
 0 <= y(0,2,2) <= 1
 0 <= y(2,0,2) <= 1
 0 <= v(0,2,2)p <= 23
 0 <= v(0,2,2)n <= 35
 0 <= v(2,0,2)p <= 22
 0 <= v(2,0,2)n <= 36
 0 <= u(0,2,2)p <= 440
 0 <= u(0,2,2)n <= 440
 0 <= u(2,0,2)p <= 440
 0 <= u(2,0,2)n <= 440
 7 <= x(1,2) <= 37
 0 <= y(1,2,2) <= 1
 0 <= y(2,1,2) <= 1
 0 <= v(1,2,2)p <= 24
 0 <= v(1,2,2)n <= 35
 0 <= v(2,1,2)p <= 22
 0 <= v(2,1,2)n <= 37
 0 <= u(1,2,2)p <= 440
 0 <= u(1,2,2)n <= 440
 0 <= u(2,1,2)p <= 440
 0 <= u(2,1,2)n <= 440
 7 <= x(2,2) <= 36
End
